sat
(:max-memory        18.78
 :memory            17.63
 :num-allocs        41023229
 :rlimit-count      452468
 :sls-constraints   2685
 :sls-ddfw-flips    111658.00
 :sls-ddfw-reinits  5
 :sls-ddfw-restarts 15
 :sls-ddfw-shifts   64677.00
 :sls.euf-conflict  2685
 :time              0.25
 :total-time        0.25)
